mixintcount/benchmarks/random_v2l/6_6_15.in
24 8
#	x1	x2	x3	x4	x5	x6;		0 = Real; 1 = Integer
	1	1	1	1	1	1
1	-7	-3	-7	-1	6	-5	13
1	5	-7	0	9	-2	-6	-11
1	0	-4	5	-7	-2	-2	4
1	3	-8	-9	0	8	-8	-6
1	-1	4	-2	2	-9	0	0
1	7	5	4	-1	6	-7	-4
1	-6	-4	1	2	2	-7	-3
1	8	1	4	1	1	6	8
1	-1	6	7	8	0	-7	14
1	-1	3	-2	-7	-3	-9	-3
1	-8	-5	6	-6	1	-5	-4
1	-10	-2	1	7	8	-8	-5
1	1	0	0	0	0	0	15
1	-1	0	0	0	0	0	15
1	0	1	0	0	0	0	15
1	0	-1	0	0	0	0	15
1	0	0	1	0	0	0	15
1	0	0	-1	0	0	0	15
1	0	0	0	1	0	0	15
1	0	0	0	-1	0	0	15
1	0	0	0	0	1	0	15
1	0	0	0	0	-1	0	15
1	0	0	0	0	0	1	15
1	0	0	0	0	0	-1	15
